(set-logic QF_NRA)

(declare-fun skoX () Real)
(declare-fun skoS () Real)
(declare-fun skoC () Real)
(assert (and (<= (* skoX (+ (/ (- 151632.) 78125.) (* skoX (+ (/ 56862. 244140625.) (* skoX (+ (/ (- 28431.) 1525878906250.) (* skoX (+ (/ 597051. 610351562500000000.) (* skoX (+ (/ (- 255879.) 7629394531250000000000.) (* skoX (/ 255879. 381469726562500000000000000.)))))))))))) (+ (+ (/ (- 202176.) 25.) (* skoC (/ 27072. 5.))) (* skoS (/ 24192. 25.)))) (and (<= (* skoX (+ (/ (- 4968.) 390625.) (* skoX (+ (/ 1863. 1220703125.) (* skoX (+ (/ (- 1863.) 15258789062500.) (* skoX (+ (/ 39123. 6103515625000000000.) (* skoX (+ (/ (- 16767.) 76293945312500000000000.) (* skoX (/ 16767. 3814697265625000000000000000.)))))))))))) (/ (- 6624.) 125.)) (and (<= (* skoX (+ (/ 4968. 390625.) (* skoX (+ (/ (- 1863.) 1220703125.) (* skoX (+ (/ 1863. 15258789062500.) (* skoX (+ (/ (- 39123.) 6103515625000000000.) (* skoX (+ (/ 16767. 76293945312500000000000.) (* skoX (/ (- 16767.) 3814697265625000000000000000.)))))))))))) (/ 6624. 125.)) (and (<= skoX 0.) (and (not (<= skoS (* skoC (/ (- 235.) 42.)))) (and (<= (* skoC (/ (- 235.) 42.)) skoS) (and (or (not (<= skoS (* skoC (/ (- 235.) 42.)))) (<= skoX 0.)) (and (or (<= (* skoC (/ (- 235.) 42.)) skoS) (<= skoX 0.)) (and (= (* skoS skoS) (+ 1. (* skoC (* skoC (- 1.))))) (and (<= skoX 289.) (<= 0. skoX))))))))))))
(set-info :status unsat)
(check-sat)
